g3 1 1 0	# problem unknown
 15 5 1 0 0 	# vars, constraints, objectives, ranges, eqns
 5 1 0 0 0 0	# nonlinear constrs, objs; ccons: lin, nonlin, nd, nzlb
 0 0	# network constraints: nonlinear, linear
 5 5 5 	# nonlinear vars in constraints, objectives, both
 0 0 0 1	# linear network variables; functions; arith, flags
 0 0 0 0 0 	# discrete variables: binary, integer, nonlinear (b,c,o)
 62 15 	# nonzeros in Jacobian, obj. gradient
 0 0	# max name lengths: constraints, variables
 0 0 0 0 0	# common exprs: b,c,o,c1,o1
C0
o2
n12
o5
v0
n2.0
C1
o2
n24
o5
v1
n2.0
C2
o2
n30
o5
v2
n2.0
C3
o2
n18
o5
v3
n2.0
C4
o2
n6
o5
v4
n2.0
O0 0
o54
30
o2
n30
o2
v0
v0
o2
n-20
o2
v0
v1
o2
n-10
o2
v0
v2
o2
n32
o2
v0
v3
o2
n-10
o2
v0
v4
o2
n-20
o2
v1
v0
o2
n39
o2
v1
v1
o2
n-6
o2
v1
v2
o2
n-31
o2
v1
v3
o2
n32
o2
v1
v4
o2
n-10
o2
v2
v0
o2
n-6
o2
v2
v1
o2
n10
o2
v2
v2
o2
n-6
o2
v2
v3
o2
n-10
o2
v2
v4
o2
n32
o2
v3
v0
o2
n-31
o2
v3
v1
o2
n-6
o2
v3
v2
o2
n39
o2
v3
v3
o2
n-20
o2
v3
v4
o2
n-10
o2
v4
v0
o2
n32
o2
v4
v1
o2
n-10
o2
v4
v2
o2
n-20
o2
v4
v3
o2
n30
o2
v4
v4
o2
n8
o5
v0
n3.0
o2
n16
o5
v1
n3.0
o2
n20
o5
v2
n3.0
o2
n12
o5
v3
n3.0
o2
n4
o5
v4
n3.0
x15
0 0.001
1 0.001
2 0.001
3 0.001
4 0.001
5 0.001
6 0.001
7 0.001
8 0.001
9 0.001
10 0.001
11 60.0
12 0.001
13 0.001
14 0.001
r
2 15.0
2 27.0
2 36.0
2 18.0
2 12.0
b
2 0
2 0
2 0
2 0
2 0
2 0
2 0
2 0
2 0
2 0
2 0
2 0
2 0
2 0
2 0
k14
5
10
15
20
25
28
31
33
36
40
42
47
52
57
J0 12
5 16.0
7 3.5
10 -2.0
11 1.0
12 1.0
13 -1.0
14 -1.0
0 60.0
1 -40.0
2 -20.0
3 64.0
4 -20.0
J1 13
5 -2.0
6 2.0
8 2.0
9 9.0
11 1.0
12 2.0
13 -2.0
14 -1.0
0 -40.0
1 78.0
2 -12.0
3 -62.0
4 64.0
J2 12
7 -2.0
9 2.0
10 4.0
11 1.0
12 3.0
13 -3.0
14 -1.0
0 -20.0
1 -12.0
2 20.0
3 -12.0
4 -20.0
J3 13
5 -1.0
6 -4.0
8 4.0
9 -1.0
11 1.0
12 2.0
13 -4.0
14 -1.0
0 64.0
1 -62.0
2 -12.0
3 78.0
4 -40.0
J4 12
6 -2.0
8 1.0
9 2.8
11 1.0
12 1.0
13 -5.0
14 -1.0
0 -20.0
1 64.0
2 -20.0
3 -40.0
4 60.0
G0 15
0 0
1 0
2 0
3 0
4 0
5 40.0
6 2.0
7 0.25
8 4.0
9 4.0
10 1.0
11 40.0
12 60.0
13 -5.0
14 -1.0
